p edge 30 180
e 1 6
e 1 9
e 1 19
e 1 20
e 1 22
e 1 25
e 2 10
e 2 10
e 2 23
e 2 26
e 2 28
e 2 28
e 3 4
e 3 10
e 3 15
e 3 18
e 3 24
e 3 28
e 4 3
e 4 3
e 4 6
e 4 8
e 4 21
e 4 30
e 5 2
e 5 4
e 5 4
e 5 7
e 5 21
e 5 21
e 6 7
e 6 7
e 6 12
e 6 13
e 6 23
e 6 23
e 7 4
e 7 18
e 7 18
e 7 18
e 7 19
e 7 28
e 8 1
e 8 6
e 8 7
e 8 11
e 8 25
e 8 27
e 9 1
e 9 7
e 9 15
e 9 20
e 9 26
e 9 26
e 10 6
e 10 9
e 10 14
e 10 17
e 10 27
e 10 30
e 11 2
e 11 4
e 11 7
e 11 8
e 11 13
e 11 17
e 12 9
e 12 11
e 12 14
e 12 18
e 12 21
e 12 27
e 13 1
e 13 3
e 13 6
e 13 8
e 13 10
e 13 18
e 14 15
e 14 20
e 14 24
e 14 25
e 14 26
e 14 30
e 15 4
e 15 12
e 15 13
e 15 18
e 15 18
e 15 21
e 16 2
e 16 4
e 16 20
e 16 21
e 16 26
e 16 27
e 17 2
e 17 16
e 17 19
e 17 19
e 17 29
e 17 29
e 18 13
e 18 16
e 18 19
e 18 28
e 18 30
e 18 30
e 19 13
e 19 17
e 19 22
e 19 23
e 19 24
e 19 28
e 20 4
e 20 11
e 20 13
e 20 15
e 20 26
e 20 30
e 21 3
e 21 7
e 21 9
e 21 15
e 21 15
e 21 26
e 22 2
e 22 6
e 22 11
e 22 12
e 22 21
e 22 23
e 23 2
e 23 11
e 23 16
e 23 19
e 23 21
e 23 28
e 24 3
e 24 10
e 24 11
e 24 13
e 24 18
e 24 22
e 25 17
e 25 17
e 25 19
e 25 20
e 25 27
e 25 30
e 26 1
e 26 12
e 26 17
e 26 20
e 26 22
e 26 27
e 27 3
e 27 4
e 27 5
e 27 7
e 27 9
e 27 22
e 28 8
e 28 11
e 28 22
e 28 22
e 28 23
e 28 29
e 29 7
e 29 10
e 29 15
e 29 23
e 29 25
e 29 30
e 30 6
e 30 10
e 30 12
e 30 22
e 30 25
e 30 27
